(set-logic ALL_SUPPORTED)
(declare-fun v!27 () Int)
(declare-fun t!23 () (_ BitVec 8))
(declare-fun t!22 () (_ BitVec 8))
(declare-fun t!24 () (_ BitVec 8))
(declare-fun t!25 () (_ BitVec 8))
(declare-fun t!19 () (_ BitVec 8))
(declare-fun t!18 () (_ BitVec 8))
(declare-fun t!20 () (_ BitVec 8))
(declare-fun t!21 () (_ BitVec 8))
(declare-fun t!15 () (_ BitVec 8))
(declare-fun t!14 () (_ BitVec 8))
(declare-fun t!16 () (_ BitVec 8))
(declare-fun t!17 () (_ BitVec 8))
(declare-fun t!11 () (_ BitVec 8))
(declare-fun t!10 () (_ BitVec 8))
(declare-fun t!12 () (_ BitVec 8))
(declare-fun t!13 () (_ BitVec 8))
(declare-fun t!7 () (_ BitVec 8))
(declare-fun t!6 () (_ BitVec 8))
(declare-fun t!8 () (_ BitVec 8))
(declare-fun t!9 () (_ BitVec 8))
(declare-fun t!3 () (_ BitVec 8))
(declare-fun t!2 () (_ BitVec 8))
(declare-fun t!4 () (_ BitVec 8))
(declare-fun t!5 () (_ BitVec 8))
(declare-fun t!1 () (_ BitVec 8))
(declare-fun t!0 () (_ BitVec 8))
(declare-fun t!26 () (_ BitVec 8))
(declare-fun s!26 () (_ BitVec 8))
(declare-fun s!3 () (_ BitVec 8))
(declare-fun s!7 () (_ BitVec 8))
(declare-fun s!11 () (_ BitVec 8))
(declare-fun s!15 () (_ BitVec 8))
(declare-fun s!19 () (_ BitVec 8))
(declare-fun s!23 () (_ BitVec 8))
(declare-fun rf!26 () (_ BitVec 8))
(declare-fun v!4 () Int)
(declare-fun rf!3 () (_ BitVec 8))
(declare-fun v!8 () Int)
(declare-fun v!12 () Int)
(declare-fun v!16 () Int)
(declare-fun v!20 () Int)
(declare-fun v!24 () Int)
(declare-fun rf!7 () (_ BitVec 8))
(declare-fun rf!11 () (_ BitVec 8))
(declare-fun rf!15 () (_ BitVec 8))
(declare-fun rf!19 () (_ BitVec 8))
(declare-fun rf!23 () (_ BitVec 8))
(assert (and true (<= 5 v!27)))
(assert (bvult (_ bv0 8) t!23))
(assert (bvult (_ bv0 8) t!22))
(assert (bvult (_ bv0 8) t!24))
(assert (bvult (_ bv0 8) t!25))
(assert (bvult (_ bv0 8) t!19))
(assert (bvult (_ bv0 8) t!18))
(assert (bvult (_ bv0 8) t!20))
(assert (bvult (_ bv0 8) t!21))
(assert (bvult (_ bv0 8) t!15))
(assert (bvult (_ bv0 8) t!14))
(assert (bvult (_ bv0 8) t!16))
(assert (bvult (_ bv0 8) t!17))
(assert (bvult (_ bv0 8) t!11))
(assert (bvult (_ bv0 8) t!10))
(assert (bvult (_ bv0 8) t!12))
(assert (bvult (_ bv0 8) t!13))
(assert (bvult (_ bv0 8) t!7))
(assert (bvult (_ bv0 8) t!6))
(assert (bvult (_ bv0 8) t!8))
(assert (bvult (_ bv0 8) t!9))
(assert (bvult (_ bv0 8) t!3))
(assert (bvult (_ bv0 8) t!2))
(assert (bvult (_ bv0 8) t!4))
(assert (bvult (_ bv0 8) t!5))
(assert (bvult (_ bv0 8) t!1))
(assert (bvult (_ bv0 8) t!0))
(assert (bvult (_ bv0 8) t!26))
(assert (and (and (and (and (and (and (and (and (and (and (and (and (and (and (and (and (and (and (and (and (and (and (and (and (and (and true (bvult t!22 t!23)) (bvult t!23 t!24)) (bvult t!24 t!25)) (bvult t!18 t!19)) (bvult t!19 t!20)) (bvult t!20 t!21)) (bvult t!14 t!15)) (bvult t!15 t!16)) (bvult t!16 t!17)) (bvult t!10 t!11)) (bvult t!11 t!12)) (bvult t!12 t!13)) (bvult t!6 t!7)) (bvult t!7 t!8)) (bvult t!8 t!9)) (bvult t!2 t!3)) (bvult t!3 t!4)) (bvult t!4 t!5)) (bvult t!0 t!1)) (bvult t!1 t!2)) (bvult t!2 t!6)) (bvult t!6 t!10)) (bvult t!10 t!14)) (bvult t!14 t!18)) (bvult t!18 t!22)) (bvult t!22 t!26)))
(assert (bvult (_ bv0 8) s!26))
(assert (bvult (_ bv0 8) s!3))
(assert (bvult (_ bv0 8) s!7))
(assert (bvult (_ bv0 8) s!11))
(assert (bvult (_ bv0 8) s!15))
(assert (bvult (_ bv0 8) s!19))
(assert (bvult (_ bv0 8) s!23))
(assert (let ((_let_0 (= (_ bv1 8) rf!26))) (let ((_let_1 (and true true))) (let ((_let_2 (bvule t!1 t!26))) (let ((_let_3 (= (_ bv4 8) rf!26))) (let ((_let_4 (bvule t!4 t!26))) (let ((_let_5 (= (_ bv0 8) rf!3))) (let ((_let_6 (bvule t!0 t!3))) (let ((_let_7 (= (_ bv8 8) rf!3))) (let ((_let_8 (bvule t!8 t!3))) (let ((_let_9 (+ v!8 1))) (let ((_let_10 (= (_ bv12 8) rf!3))) (let ((_let_11 (bvule t!12 t!3))) (let ((_let_12 (+ v!12 1))) (let ((_let_13 (= (_ bv16 8) rf!3))) (let ((_let_14 (bvule t!16 t!3))) (let ((_let_15 (+ v!16 1))) (let ((_let_16 (= (_ bv20 8) rf!3))) (let ((_let_17 (bvule t!20 t!3))) (let ((_let_18 (+ v!20 1))) (let ((_let_19 (= (_ bv24 8) rf!3))) (let ((_let_20 (bvule t!24 t!3))) (let ((_let_21 (+ v!24 1))) (let ((_let_22 (= (_ bv0 8) rf!7))) (let ((_let_23 (bvule t!0 t!7))) (let ((_let_24 (= (_ bv8 8) rf!7))) (let ((_let_25 (bvule t!8 t!7))) (let ((_let_26 (= (_ bv12 8) rf!7))) (let ((_let_27 (bvule t!12 t!7))) (let ((_let_28 (= (_ bv16 8) rf!7))) (let ((_let_29 (bvule t!16 t!7))) (let ((_let_30 (= (_ bv20 8) rf!7))) (let ((_let_31 (bvule t!20 t!7))) (let ((_let_32 (= (_ bv24 8) rf!7))) (let ((_let_33 (bvule t!24 t!7))) (let ((_let_34 (= (_ bv0 8) rf!11))) (let ((_let_35 (bvule t!0 t!11))) (let ((_let_36 (= (_ bv8 8) rf!11))) (let ((_let_37 (bvule t!8 t!11))) (let ((_let_38 (= (_ bv12 8) rf!11))) (let ((_let_39 (bvule t!12 t!11))) (let ((_let_40 (= (_ bv16 8) rf!11))) (let ((_let_41 (bvule t!16 t!11))) (let ((_let_42 (= (_ bv20 8) rf!11))) (let ((_let_43 (bvule t!20 t!11))) (let ((_let_44 (= (_ bv24 8) rf!11))) (let ((_let_45 (bvule t!24 t!11))) (let ((_let_46 (= (_ bv0 8) rf!15))) (let ((_let_47 (bvule t!0 t!15))) (let ((_let_48 (= (_ bv8 8) rf!15))) (let ((_let_49 (bvule t!8 t!15))) (let ((_let_50 (= (_ bv12 8) rf!15))) (let ((_let_51 (bvule t!12 t!15))) (let ((_let_52 (= (_ bv16 8) rf!15))) (let ((_let_53 (bvule t!16 t!15))) (let ((_let_54 (= (_ bv20 8) rf!15))) (let ((_let_55 (bvule t!20 t!15))) (let ((_let_56 (= (_ bv24 8) rf!15))) (let ((_let_57 (bvule t!24 t!15))) (let ((_let_58 (= (_ bv0 8) rf!19))) (let ((_let_59 (bvule t!0 t!19))) (let ((_let_60 (= (_ bv8 8) rf!19))) (let ((_let_61 (bvule t!8 t!19))) (let ((_let_62 (= (_ bv12 8) rf!19))) (let ((_let_63 (bvule t!12 t!19))) (let ((_let_64 (= (_ bv16 8) rf!19))) (let ((_let_65 (bvule t!16 t!19))) (let ((_let_66 (= (_ bv20 8) rf!19))) (let ((_let_67 (bvule t!20 t!19))) (let ((_let_68 (= (_ bv24 8) rf!19))) (let ((_let_69 (bvule t!24 t!19))) (let ((_let_70 (= (_ bv0 8) rf!23))) (let ((_let_71 (bvule t!0 t!23))) (let ((_let_72 (= (_ bv8 8) rf!23))) (let ((_let_73 (bvule t!8 t!23))) (let ((_let_74 (= (_ bv12 8) rf!23))) (let ((_let_75 (bvule t!12 t!23))) (let ((_let_76 (= (_ bv16 8) rf!23))) (let ((_let_77 (bvule t!16 t!23))) (let ((_let_78 (= (_ bv20 8) rf!23))) (let ((_let_79 (bvule t!20 t!23))) (let ((_let_80 (= (_ bv24 8) rf!23))) (let ((_let_81 (bvule t!24 t!23))) (and (and (and (and (and (and (and (and (and (and (and (and (and (and (and (and (and (and (and (and (and (and (and (and (and (and (and (and (and (and (and (and (and (and (and (and (and (and (and (and (and (and (and (and (and (and (and (and (and (and (and (and (and (and (and (and (and (and (and (and (and (and (and (and (and (and (and (and (and (and (and (and (and (and (and (and (and (and (and (and (and (and (and true (=> _let_0 (and (and (and _let_1 _let_2) (= 0 v!27)) (= s!26 t!1)))) (=> (and _let_2 true) (bvule t!1 s!26))) (=> _let_3 (and (and (and _let_1 _let_4) (= v!4 v!27)) (= s!26 t!4)))) (=> (and _let_4 true) (bvule t!4 s!26))) (=> true (or _let_3 (or _let_0 false)))) (=> _let_5 (and (and (and _let_1 _let_6) (= 0 v!4)) (= s!3 t!0)))) (=> (and _let_6 true) (bvule t!0 s!3))) (=> _let_7 (and (and (and _let_1 _let_8) (= _let_9 v!4)) (= s!3 t!8)))) (=> (and _let_8 true) (bvule t!8 s!3))) (=> _let_10 (and (and (and _let_1 _let_11) (= _let_12 v!4)) (= s!3 t!12)))) (=> (and _let_11 true) (bvule t!12 s!3))) (=> _let_13 (and (and (and _let_1 _let_14) (= _let_15 v!4)) (= s!3 t!16)))) (=> (and _let_14 true) (bvule t!16 s!3))) (=> _let_16 (and (and (and _let_1 _let_17) (= _let_18 v!4)) (= s!3 t!20)))) (=> (and _let_17 true) (bvule t!20 s!3))) (=> _let_19 (and (and (and _let_1 _let_20) (= _let_21 v!4)) (= s!3 t!24)))) (=> (and _let_20 true) (bvule t!24 s!3))) (=> true (or _let_19 (or _let_16 (or _let_13 (or _let_10 (or _let_7 (or _let_5 false)))))))) (=> _let_22 (and (and (and _let_1 _let_23) (= 0 v!8)) (= s!7 t!0)))) (=> (and _let_23 true) (bvule t!0 s!7))) (=> _let_24 (and (and (and _let_1 _let_25) (= _let_9 v!8)) (= s!7 t!8)))) (=> (and _let_25 true) (bvule t!8 s!7))) (=> _let_26 (and (and (and _let_1 _let_27) (= _let_12 v!8)) (= s!7 t!12)))) (=> (and _let_27 true) (bvule t!12 s!7))) (=> _let_28 (and (and (and _let_1 _let_29) (= _let_15 v!8)) (= s!7 t!16)))) (=> (and _let_29 true) (bvule t!16 s!7))) (=> _let_30 (and (and (and _let_1 _let_31) (= _let_18 v!8)) (= s!7 t!20)))) (=> (and _let_31 true) (bvule t!20 s!7))) (=> _let_32 (and (and (and _let_1 _let_33) (= _let_21 v!8)) (= s!7 t!24)))) (=> (and _let_33 true) (bvule t!24 s!7))) (=> true (or _let_32 (or _let_30 (or _let_28 (or _let_26 (or _let_24 (or _let_22 false)))))))) (=> _let_34 (and (and (and _let_1 _let_35) (= 0 v!12)) (= s!11 t!0)))) (=> (and _let_35 true) (bvule t!0 s!11))) (=> _let_36 (and (and (and _let_1 _let_37) (= _let_9 v!12)) (= s!11 t!8)))) (=> (and _let_37 true) (bvule t!8 s!11))) (=> _let_38 (and (and (and _let_1 _let_39) (= _let_12 v!12)) (= s!11 t!12)))) (=> (and _let_39 true) (bvule t!12 s!11))) (=> _let_40 (and (and (and _let_1 _let_41) (= _let_15 v!12)) (= s!11 t!16)))) (=> (and _let_41 true) (bvule t!16 s!11))) (=> _let_42 (and (and (and _let_1 _let_43) (= _let_18 v!12)) (= s!11 t!20)))) (=> (and _let_43 true) (bvule t!20 s!11))) (=> _let_44 (and (and (and _let_1 _let_45) (= _let_21 v!12)) (= s!11 t!24)))) (=> (and _let_45 true) (bvule t!24 s!11))) (=> true (or _let_44 (or _let_42 (or _let_40 (or _let_38 (or _let_36 (or _let_34 false)))))))) (=> _let_46 (and (and (and _let_1 _let_47) (= 0 v!16)) (= s!15 t!0)))) (=> (and _let_47 true) (bvule t!0 s!15))) (=> _let_48 (and (and (and _let_1 _let_49) (= _let_9 v!16)) (= s!15 t!8)))) (=> (and _let_49 true) (bvule t!8 s!15))) (=> _let_50 (and (and (and _let_1 _let_51) (= _let_12 v!16)) (= s!15 t!12)))) (=> (and _let_51 true) (bvule t!12 s!15))) (=> _let_52 (and (and (and _let_1 _let_53) (= _let_15 v!16)) (= s!15 t!16)))) (=> (and _let_53 true) (bvule t!16 s!15))) (=> _let_54 (and (and (and _let_1 _let_55) (= _let_18 v!16)) (= s!15 t!20)))) (=> (and _let_55 true) (bvule t!20 s!15))) (=> _let_56 (and (and (and _let_1 _let_57) (= _let_21 v!16)) (= s!15 t!24)))) (=> (and _let_57 true) (bvule t!24 s!15))) (=> true (or _let_56 (or _let_54 (or _let_52 (or _let_50 (or _let_48 (or _let_46 false)))))))) (=> _let_58 (and (and (and _let_1 _let_59) (= 0 v!20)) (= s!19 t!0)))) (=> (and _let_59 true) (bvule t!0 s!19))) (=> _let_60 (and (and (and _let_1 _let_61) (= _let_9 v!20)) (= s!19 t!8)))) (=> (and _let_61 true) (bvule t!8 s!19))) (=> _let_62 (and (and (and _let_1 _let_63) (= _let_12 v!20)) (= s!19 t!12)))) (=> (and _let_63 true) (bvule t!12 s!19))) (=> _let_64 (and (and (and _let_1 _let_65) (= _let_15 v!20)) (= s!19 t!16)))) (=> (and _let_65 true) (bvule t!16 s!19))) (=> _let_66 (and (and (and _let_1 _let_67) (= _let_18 v!20)) (= s!19 t!20)))) (=> (and _let_67 true) (bvule t!20 s!19))) (=> _let_68 (and (and (and _let_1 _let_69) (= _let_21 v!20)) (= s!19 t!24)))) (=> (and _let_69 true) (bvule t!24 s!19))) (=> true (or _let_68 (or _let_66 (or _let_64 (or _let_62 (or _let_60 (or _let_58 false)))))))) (=> _let_70 (and (and (and _let_1 _let_71) (= 0 v!24)) (= s!23 t!0)))) (=> (and _let_71 true) (bvule t!0 s!23))) (=> _let_72 (and (and (and _let_1 _let_73) (= _let_9 v!24)) (= s!23 t!8)))) (=> (and _let_73 true) (bvule t!8 s!23))) (=> _let_74 (and (and (and _let_1 _let_75) (= _let_12 v!24)) (= s!23 t!12)))) (=> (and _let_75 true) (bvule t!12 s!23))) (=> _let_76 (and (and (and _let_1 _let_77) (= _let_15 v!24)) (= s!23 t!16)))) (=> (and _let_77 true) (bvule t!16 s!23))) (=> _let_78 (and (and (and _let_1 _let_79) (= _let_18 v!24)) (= s!23 t!20)))) (=> (and _let_79 true) (bvule t!20 s!23))) (=> _let_80 (and (and (and _let_1 _let_81) (= _let_21 v!24)) (= s!23 t!24)))) (=> (and _let_81 true) (bvule t!24 s!23))) (=> true (or _let_80 (or _let_78 (or _let_76 (or _let_74 (or _let_72 (or _let_70 false)))))))))))))))))))))))))))))))))))))))))))))))))))))))))))))))))))))))))))))))))))))))))))
(assert (and (and true (distinct t!1 t!4)) (distinct t!0 t!8 t!12 t!16 t!20 t!24)))
(check-sat)
